NAME: dj38
COMMENT: 38 locations in Djibouti
COMMENT: Derived from National Imagery and Mapping Agency data
COMMENT: This file is a corrected version of dj89, where duplications
COMMENT:  have been removed.  Thanks to Jay Muthuswamy and others for
COMMENT:  requesting data sets without duplications.
TYPE: TSP
EDGE_WEIGHT_TYPE: EUC_2D
NODE_COORD_SECTION
DIMENSION: 6
1 0 2
2 1 3
3 2 2
4 2 1
5 1 0
6 0 1
EOF